p edge 200 3980
e 1 6
e 1 9
e 1 14
e 1 36
e 1 42
e 1 57
e 1 60
e 1 62
e 1 63
e 1 68
e 1 76
e 1 77
e 1 78
e 1 80
e 1 84
e 1 87
e 1 88
e 1 93
e 1 104
e 1 119
e 1 126
e 1 131
e 1 132
e 1 135
e 1 136
e 1 139
e 1 144
e 1 145
e 1 150
e 1 153
e 1 156
e 1 161
e 1 168
e 1 170
e 1 171
e 1 178
e 1 187
e 1 188
e 1 197
e 1 198
e 1 199
e 2 24
e 2 33
e 2 34
e 2 35
e 2 49
e 2 60
e 2 61
e 2 64
e 2 65
e 2 74
e 2 75
e 2 80
e 2 91
e 2 92
e 2 93
e 2 97
e 2 103
e 2 115
e 2 124
e 2 126
e 2 127
e 2 133
e 2 135
e 2 142
e 2 144
e 2 146
e 2 148
e 2 166
e 2 168
e 2 170
e 2 173
e 2 176
e 2 179
e 2 184
e 2 186
e 2 189
e 2 190
e 2 192
e 2 194
e 2 195
e 3 5
e 3 8
e 3 9
e 3 11
e 3 12
e 3 17
e 3 18
e 3 28
e 3 44
e 3 53
e 3 66
e 3 75
e 3 80
e 3 82
e 3 92
e 3 105
e 3 106
e 3 113
e 3 120
e 3 122
e 3 124
e 3 127
e 3 130
e 3 143
e 3 145
e 3 148
e 3 150
e 3 151
e 3 152
e 3 156
e 3 165
e 3 166
e 3 172
e 3 179
e 3 181
e 3 182
e 3 186
e 3 187
e 3 194
e 3 197
e 3 200
e 4 6
e 4 7
e 4 9
e 4 10
e 4 12
e 4 18
e 4 20
e 4 29
e 4 34
e 4 41
e 4 50
e 4 51
e 4 53
e 4 58
e 4 62
e 4 65
e 4 66
e 4 72
e 4 78
e 4 84
e 4 86
e 4 87
e 4 94
e 4 108
e 4 109
e 4 112
e 4 116
e 4 127
e 4 129
e 4 130
e 4 139
e 4 144
e 4 149
e 4 150
e 4 151
e 4 154
e 4 156
e 4 165
e 4 173
e 4 175
e 4 177
e 4 185
e 4 188
e 4 194
e 4 195
e 4 196
e 4 200
e 5 17
e 5 18
e 5 20
e 5 21
e 5 24
e 5 31
e 5 37
e 5 42
e 5 46
e 5 51
e 5 52
e 5 55
e 5 58
e 5 61
e 5 68
e 5 69
e 5 72
e 5 79
e 5 80
e 5 93
e 5 99
e 5 102
e 5 108
e 5 119
e 5 126
e 5 128
e 5 130
e 5 132
e 5 137
e 5 139
e 5 143
e 5 147
e 5 148
e 5 152
e 5 156
e 5 167
e 5 177
e 5 181
e 5 186
e 5 188
e 5 189
e 5 193
e 5 194
e 5 197
e 6 17
e 6 19
e 6 23
e 6 25
e 6 42
e 6 49
e 6 51
e 6 68
e 6 71
e 6 73
e 6 76
e 6 84
e 6 86
e 6 92
e 6 98
e 6 101
e 6 119
e 6 124
e 6 125
e 6 129
e 6 130
e 6 133
e 6 134
e 6 135
e 6 146
e 6 150
e 6 157
e 6 161
e 6 174
e 6 178
e 6 181
e 6 185
e 6 191
e 6 199
e 7 10
e 7 16
e 7 24
e 7 25
e 7 26
e 7 28
e 7 32
e 7 34
e 7 38
e 7 49
e 7 55
e 7 59
e 7 69
e 7 72
e 7 79
e 7 89
e 7 92
e 7 98
e 7 111
e 7 112
e 7 120
e 7 121
e 7 125
e 7 135
e 7 142
e 7 144
e 7 160
e 7 162
e 7 167
e 7 168
e 7 170
e 7 175
e 7 178
e 7 181
e 7 193
e 8 18
e 8 22
e 8 32
e 8 39
e 8 47
e 8 52
e 8 59
e 8 60
e 8 64
e 8 75
e 8 78
e 8 80
e 8 84
e 8 86
e 8 87
e 8 94
e 8 96
e 8 100
e 8 108
e 8 111
e 8 113
e 8 116
e 8 117
e 8 122
e 8 132
e 8 136
e 8 138
e 8 143
e 8 154
e 8 155
e 8 158
e 8 162
e 8 163
e 8 167
e 8 168
e 8 184
e 8 187
e 8 190
e 9 13
e 9 14
e 9 15
e 9 18
e 9 22
e 9 24
e 9 40
e 9 41
e 9 47
e 9 65
e 9 67
e 9 71
e 9 72
e 9 78
e 9 79
e 9 82
e 9 89
e 9 91
e 9 93
e 9 99
e 9 102
e 9 106
e 9 107
e 9 109
e 9 110
e 9 115
e 9 118
e 9 123
e 9 134
e 9 141
e 9 145
e 9 149
e 9 152
e 9 160
e 9 161
e 9 171
e 9 172
e 9 181
e 9 186
e 9 192
e 9 193
e 9 195
e 10 18
e 10 23
e 10 25
e 10 27
e 10 32
e 10 35
e 10 47
e 10 48
e 10 49
e 10 51
e 10 53
e 10 66
e 10 67
e 10 70
e 10 75
e 10 77
e 10 88
e 10 100
e 10 105
e 10 123
e 10 127
e 10 128
e 10 130
e 10 132
e 10 139
e 10 144
e 10 152
e 10 154
e 10 155
e 10 165
e 10 166
e 10 168
e 10 173
e 10 184
e 10 185
e 10 186
e 10 193
e 10 194
e 10 195
e 10 197
e 10 200
e 11 15
e 11 17
e 11 24
e 11 35
e 11 56
e 11 66
e 11 71
e 11 73
e 11 78
e 11 79
e 11 82
e 11 84
e 11 97
e 11 105
e 11 111
e 11 112
e 11 116
e 11 118
e 11 133
e 11 135
e 11 144
e 11 145
e 11 147
e 11 154
e 11 158
e 11 167
e 11 169
e 11 177
e 11 183
e 11 194
e 11 195
e 11 199
e 12 16
e 12 20
e 12 22
e 12 24
e 12 33
e 12 36
e 12 37
e 12 40
e 12 43
e 12 47
e 12 53
e 12 69
e 12 78
e 12 82
e 12 92
e 12 107
e 12 114
e 12 118
e 12 119
e 12 122
e 12 126
e 12 130
e 12 131
e 12 135
e 12 138
e 12 144
e 12 145
e 12 147
e 12 154
e 12 158
e 12 160
e 12 161
e 12 169
e 12 172
e 12 173
e 12 179
e 12 187
e 12 190
e 12 199
e 13 16
e 13 19
e 13 22
e 13 28
e 13 34
e 13 37
e 13 41
e 13 43
e 13 44
e 13 45
e 13 50
e 13 58
e 13 61
e 13 64
e 13 72
e 13 73
e 13 74
e 13 82
e 13 86
e 13 91
e 13 95
e 13 98
e 13 102
e 13 104
e 13 108
e 13 109
e 13 112
e 13 114
e 13 115
e 13 116
e 13 118
e 13 122
e 13 129
e 13 131
e 13 141
e 13 147
e 13 149
e 13 152
e 13 157
e 13 161
e 13 164
e 13 169
e 13 170
e 13 176
e 13 187
e 13 190
e 13 191
e 13 194
e 13 200
e 14 15
e 14 23
e 14 30
e 14 32
e 14 38
e 14 57
e 14 80
e 14 81
e 14 84
e 14 87
e 14 92
e 14 93
e 14 96
e 14 97
e 14 99
e 14 100
e 14 105
e 14 113
e 14 117
e 14 119
e 14 128
e 14 132
e 14 134
e 14 138
e 14 141
e 14 151
e 14 155
e 14 156
e 14 158
e 14 159
e 14 161
e 14 172
e 14 173
e 14 181
e 14 182
e 14 185
e 14 188
e 14 193
e 14 195
e 14 197
e 15 16
e 15 18
e 15 22
e 15 25
e 15 29
e 15 31
e 15 34
e 15 39
e 15 40
e 15 49
e 15 72
e 15 74
e 15 87
e 15 91
e 15 112
e 15 114
e 15 117
e 15 121
e 15 130
e 15 131
e 15 132
e 15 133
e 15 134
e 15 136
e 15 138
e 15 141
e 15 146
e 15 151
e 15 159
e 15 166
e 15 168
e 15 171
e 15 189
e 15 199
e 16 18
e 16 30
e 16 40
e 16 46
e 16 52
e 16 61
e 16 63
e 16 64
e 16 68
e 16 70
e 16 80
e 16 82
e 16 89
e 16 97
e 16 109
e 16 114
e 16 120
e 16 122
e 16 127
e 16 130
e 16 132
e 16 135
e 16 136
e 16 140
e 16 141
e 16 143
e 16 150
e 16 158
e 16 159
e 16 164
e 16 179
e 16 186
e 16 197
e 16 199
e 17 20
e 17 23
e 17 32
e 17 34
e 17 39
e 17 40
e 17 48
e 17 51
e 17 54
e 17 58
e 17 61
e 17 71
e 17 75
e 17 76
e 17 80
e 17 86
e 17 93
e 17 100
e 17 101
e 17 102
e 17 105
e 17 110
e 17 120
e 17 130
e 17 139
e 17 148
e 17 152
e 17 153
e 17 155
e 17 162
e 17 166
e 17 168
e 17 170
e 17 178
e 17 181
e 17 185
e 17 187
e 17 198
e 17 200
e 18 19
e 18 20
e 18 23
e 18 24
e 18 26
e 18 46
e 18 58
e 18 66
e 18 80
e 18 83
e 18 88
e 18 90
e 18 93
e 18 94
e 18 95
e 18 98
e 18 100
e 18 104
e 18 109
e 18 117
e 18 118
e 18 131
e 18 132
e 18 133
e 18 137
e 18 142
e 18 144
e 18 151
e 18 157
e 18 159
e 18 162
e 18 163
e 18 166
e 18 168
e 18 180
e 18 188
e 18 190
e 18 195
e 19 28
e 19 29
e 19 30
e 19 31
e 19 37
e 19 38
e 19 41
e 19 42
e 19 53
e 19 61
e 19 65
e 19 71
e 19 75
e 19 78
e 19 86
e 19 89
e 19 91
e 19 95
e 19 101
e 19 110
e 19 118
e 19 121
e 19 124
e 19 126
e 19 128
e 19 136
e 19 146
e 19 148
e 19 151
e 19 159
e 19 163
e 19 167
e 19 172
e 19 174
e 19 180
e 19 185
e 19 189
e 19 194
e 19 195
e 20 23
e 20 27
e 20 37
e 20 39
e 20 40
e 20 42
e 20 43
e 20 48
e 20 49
e 20 61
e 20 63
e 20 69
e 20 70
e 20 82
e 20 86
e 20 89
e 20 91
e 20 95
e 20 120
e 20 131
e 20 132
e 20 136
e 20 144
e 20 154
e 20 160
e 20 169
e 20 175
e 20 177
e 20 181
e 20 187
e 20 192
e 20 194
e 20 200
e 21 23
e 21 24
e 21 26
e 21 34
e 21 35
e 21 40
e 21 45
e 21 47
e 21 49
e 21 57
e 21 58
e 21 64
e 21 67
e 21 68
e 21 69
e 21 71
e 21 76
e 21 77
e 21 85
e 21 98
e 21 100
e 21 102
e 21 109
e 21 116
e 21 125
e 21 129
e 21 142
e 21 151
e 21 153
e 21 155
e 21 156
e 21 160
e 21 167
e 21 168
e 21 169
e 21 173
e 21 184
e 21 191
e 21 199
e 22 24
e 22 35
e 22 39
e 22 44
e 22 47
e 22 49
e 22 50
e 22 57
e 22 67
e 22 75
e 22 78
e 22 79
e 22 83
e 22 87
e 22 90
e 22 98
e 22 99
e 22 102
e 22 108
e 22 115
e 22 125
e 22 131
e 22 137
e 22 138
e 22 146
e 22 149
e 22 153
e 22 157
e 22 158
e 22 159
e 22 161
e 22 165
e 22 169
e 22 172
e 22 173
e 22 175
e 22 183
e 22 184
e 22 188
e 22 190
e 22 199
e 23 24
e 23 25
e 23 30
e 23 36
e 23 38
e 23 44
e 23 45
e 23 47
e 23 52
e 23 58
e 23 61
e 23 71
e 23 73
e 23 74
e 23 75
e 23 81
e 23 82
e 23 88
e 23 89
e 23 90
e 23 93
e 23 94
e 23 96
e 23 98
e 23 103
e 23 125
e 23 126
e 23 131
e 23 133
e 23 135
e 23 138
e 23 144
e 23 147
e 23 148
e 23 151
e 23 156
e 23 157
e 23 160
e 23 163
e 23 170
e 23 171
e 23 176
e 23 178
e 23 197
e 24 32
e 24 34
e 24 38
e 24 39
e 24 41
e 24 43
e 24 50
e 24 51
e 24 53
e 24 85
e 24 105
e 24 109
e 24 110
e 24 111
e 24 113
e 24 125
e 24 133
e 24 140
e 24 143
e 24 144
e 24 146
e 24 151
e 24 153
e 24 155
e 24 158
e 24 162
e 24 168
e 24 169
e 24 170
e 24 173
e 24 176
e 24 181
e 24 189
e 24 190
e 24 191
e 24 193
e 24 197
e 24 200
e 25 27
e 25 29
e 25 30
e 25 34
e 25 40
e 25 44
e 25 49
e 25 51
e 25 58
e 25 66
e 25 73
e 25 77
e 25 80
e 25 83
e 25 85
e 25 96
e 25 108
e 25 121
e 25 127
e 25 134
e 25 146
e 25 152
e 25 166
e 25 175
e 25 181
e 25 190
e 25 191
e 25 193
e 26 30
e 26 31
e 26 33
e 26 41
e 26 42
e 26 43
e 26 51
e 26 57
e 26 59
e 26 71
e 26 80
e 26 82
e 26 85
e 26 89
e 26 103
e 26 105
e 26 106
e 26 119
e 26 121
e 26 128
e 26 145
e 26 150
e 26 153
e 26 165
e 26 167
e 26 168
e 26 172
e 26 174
e 26 177
e 26 178
e 26 179
e 26 180
e 26 186
e 26 190
e 26 192
e 26 196
e 27 49
e 27 53
e 27 64
e 27 67
e 27 72
e 27 77
e 27 84
e 27 86
e 27 87
e 27 89
e 27 97
e 27 102
e 27 103
e 27 107
e 27 110
e 27 113
e 27 117
e 27 120
e 27 125
e 27 129
e 27 140
e 27 142
e 27 143
e 27 162
e 27 163
e 27 175
e 27 182
e 27 186
e 27 197
e 27 198
e 28 29
e 28 30
e 28 31
e 28 35
e 28 43
e 28 46
e 28 50
e 28 55
e 28 67
e 28 70
e 28 73
e 28 75
e 28 76
e 28 86
e 28 89
e 28 92
e 28 107
e 28 108
e 28 119
e 28 122
e 28 131
e 28 138
e 28 139
e 28 145
e 28 146
e 28 160
e 28 166
e 28 171
e 28 173
e 28 174
e 28 189
e 28 190
e 28 193
e 29 37
e 29 40
e 29 49
e 29 54
e 29 60
e 29 69
e 29 85
e 29 100
e 29 104
e 29 111
e 29 118
e 29 125
e 29 126
e 29 129
e 29 130
e 29 131
e 29 135
e 29 141
e 29 142
e 29 144
e 29 150
e 29 151
e 29 163
e 29 183
e 29 184
e 29 188
e 29 194
e 29 196
e 29 199
e 29 200
e 30 31
e 30 32
e 30 33
e 30 35
e 30 41
e 30 44
e 30 48
e 30 54
e 30 57
e 30 64
e 30 74
e 30 86
e 30 95
e 30 96
e 30 99
e 30 100
e 30 105
e 30 109
e 30 121
e 30 122
e 30 124
e 30 129
e 30 133
e 30 134
e 30 138
e 30 142
e 30 143
e 30 147
e 30 153
e 30 157
e 30 165
e 30 171
e 30 175
e 30 176
e 30 179
e 30 189
e 30 192
e 30 193
e 30 194
e 30 196
e 30 200
e 31 46
e 31 52
e 31 60
e 31 66
e 31 67
e 31 69
e 31 72
e 31 75
e 31 76
e 31 77
e 31 85
e 31 86
e 31 92
e 31 98
e 31 100
e 31 106
e 31 108
e 31 109
e 31 114
e 31 115
e 31 117
e 31 125
e 31 129
e 31 130
e 31 142
e 31 150
e 31 156
e 31 157
e 31 160
e 31 171
e 31 172
e 31 173
e 31 175
e 31 177
e 31 180
e 31 183
e 31 184
e 31 187
e 31 193
e 32 34
e 32 40
e 32 42
e 32 49
e 32 57
e 32 58
e 32 69
e 32 80
e 32 84
e 32 109
e 32 111
e 32 115
e 32 116
e 32 119
e 32 122
e 32 123
e 32 127
e 32 129
e 32 130
e 32 138
e 32 149
e 32 153
e 32 158
e 32 163
e 32 164
e 32 173
e 32 180
e 32 188
e 32 194
e 32 197
e 33 34
e 33 37
e 33 41
e 33 42
e 33 49
e 33 50
e 33 57
e 33 59
e 33 61
e 33 64
e 33 71
e 33 78
e 33 79
e 33 86
e 33 87
e 33 90
e 33 99
e 33 103
e 33 107
e 33 109
e 33 111
e 33 113
e 33 117
e 33 122
e 33 123
e 33 128
e 33 146
e 33 148
e 33 166
e 33 170
e 33 176
e 33 185
e 33 187
e 33 190
e 33 198
e 34 36
e 34 40
e 34 45
e 34 64
e 34 69
e 34 70
e 34 74
e 34 76
e 34 80
e 34 85
e 34 86
e 34 90
e 34 99
e 34 108
e 34 109
e 34 119
e 34 129
e 34 135
e 34 136
e 34 151
e 34 152
e 34 167
e 34 177
e 34 178
e 34 180
e 34 181
e 34 186
e 34 190
e 34 192
e 34 194
e 34 195
e 35 37
e 35 38
e 35 39
e 35 41
e 35 52
e 35 53
e 35 58
e 35 65
e 35 69
e 35 70
e 35 88
e 35 93
e 35 97
e 35 104
e 35 108
e 35 109
e 35 110
e 35 114
e 35 115
e 35 120
e 35 121
e 35 125
e 35 142
e 35 144
e 35 147
e 35 148
e 35 149
e 35 155
e 35 156
e 35 157
e 35 160
e 35 161
e 35 164
e 35 174
e 35 179
e 35 184
e 35 185
e 35 192
e 36 37
e 36 38
e 36 40
e 36 60
e 36 63
e 36 90
e 36 96
e 36 99
e 36 101
e 36 105
e 36 120
e 36 123
e 36 142
e 36 144
e 36 153
e 36 159
e 36 165
e 36 166
e 36 167
e 36 169
e 36 171
e 36 175
e 36 178
e 36 180
e 36 190
e 36 192
e 36 197
e 37 54
e 37 56
e 37 57
e 37 67
e 37 69
e 37 71
e 37 76
e 37 81
e 37 84
e 37 89
e 37 92
e 37 93
e 37 94
e 37 99
e 37 100
e 37 105
e 37 111
e 37 115
e 37 119
e 37 124
e 37 151
e 37 156
e 37 158
e 37 159
e 37 166
e 37 176
e 37 178
e 37 179
e 37 185
e 37 197
e 38 40
e 38 47
e 38 48
e 38 51
e 38 58
e 38 63
e 38 70
e 38 71
e 38 78
e 38 79
e 38 89
e 38 91
e 38 95
e 38 96
e 38 97
e 38 101
e 38 103
e 38 106
e 38 108
e 38 113
e 38 120
e 38 122
e 38 123
e 38 130
e 38 140
e 38 150
e 38 154
e 38 158
e 38 164
e 38 172
e 38 174
e 38 176
e 38 189
e 38 193
e 39 42
e 39 46
e 39 57
e 39 58
e 39 67
e 39 73
e 39 82
e 39 83
e 39 99
e 39 102
e 39 106
e 39 108
e 39 114
e 39 115
e 39 119
e 39 129
e 39 134
e 39 136
e 39 140
e 39 144
e 39 145
e 39 149
e 39 150
e 39 151
e 39 153
e 39 159
e 39 162
e 39 165
e 39 168
e 39 175
e 39 180
e 39 181
e 39 182
e 39 188
e 39 190
e 40 41
e 40 43
e 40 44
e 40 55
e 40 69
e 40 72
e 40 80
e 40 84
e 40 95
e 40 99
e 40 101
e 40 109
e 40 110
e 40 114
e 40 117
e 40 121
e 40 123
e 40 124
e 40 128
e 40 138
e 40 147
e 40 154
e 40 157
e 40 159
e 40 169
e 40 179
e 40 180
e 40 186
e 40 187
e 40 190
e 41 46
e 41 50
e 41 62
e 41 69
e 41 79
e 41 84
e 41 87
e 41 94
e 41 96
e 41 98
e 41 110
e 41 113
e 41 117
e 41 121
e 41 122
e 41 132
e 41 138
e 41 142
e 41 144
e 41 145
e 41 167
e 41 192
e 41 197
e 42 45
e 42 51
e 42 53
e 42 54
e 42 56
e 42 59
e 42 60
e 42 67
e 42 70
e 42 71
e 42 78
e 42 79
e 42 83
e 42 92
e 42 95
e 42 96
e 42 104
e 42 109
e 42 110
e 42 114
e 42 119
e 42 120
e 42 122
e 42 131
e 42 153
e 42 155
e 42 162
e 42 166
e 42 170
e 42 189
e 42 199
e 43 45
e 43 46
e 43 50
e 43 61
e 43 65
e 43 67
e 43 69
e 43 71
e 43 78
e 43 79
e 43 84
e 43 101
e 43 102
e 43 103
e 43 113
e 43 116
e 43 118
e 43 119
e 43 120
e 43 125
e 43 134
e 43 138
e 43 141
e 43 142
e 43 150
e 43 154
e 43 158
e 43 177
e 44 51
e 44 61
e 44 64
e 44 79
e 44 87
e 44 90
e 44 91
e 44 97
e 44 100
e 44 104
e 44 112
e 44 113
e 44 114
e 44 124
e 44 125
e 44 128
e 44 133
e 44 142
e 44 143
e 44 150
e 44 156
e 44 160
e 44 163
e 44 168
e 44 185
e 44 188
e 44 192
e 44 196
e 45 46
e 45 47
e 45 55
e 45 60
e 45 62
e 45 64
e 45 66
e 45 77
e 45 82
e 45 84
e 45 90
e 45 106
e 45 123
e 45 126
e 45 127
e 45 130
e 45 131
e 45 135
e 45 142
e 45 147
e 45 148
e 45 150
e 45 151
e 45 155
e 45 158
e 45 160
e 45 168
e 45 172
e 45 179
e 45 185
e 45 194
e 45 200
e 46 51
e 46 53
e 46 54
e 46 56
e 46 59
e 46 64
e 46 74
e 46 88
e 46 89
e 46 92
e 46 105
e 46 108
e 46 115
e 46 117
e 46 119
e 46 123
e 46 128
e 46 130
e 46 131
e 46 134
e 46 135
e 46 136
e 46 139
e 46 147
e 46 154
e 46 157
e 46 158
e 46 164
e 46 165
e 46 173
e 46 181
e 46 182
e 46 184
e 46 195
e 46 200
e 47 50
e 47 62
e 47 64
e 47 66
e 47 77
e 47 81
e 47 83
e 47 86
e 47 93
e 47 110
e 47 111
e 47 113
e 47 115
e 47 116
e 47 126
e 47 127
e 47 130
e 47 134
e 47 136
e 47 139
e 47 142
e 47 161
e 47 163
e 47 171
e 47 173
e 47 176
e 47 178
e 47 194
e 47 199
e 48 52
e 48 53
e 48 56
e 48 57
e 48 61
e 48 62
e 48 63
e 48 64
e 48 65
e 48 67
e 48 68
e 48 78
e 48 82
e 48 91
e 48 98
e 48 102
e 48 106
e 48 110
e 48 114
e 48 117
e 48 118
e 48 123
e 48 124
e 48 127
e 48 129
e 48 132
e 48 134
e 48 136
e 48 137
e 48 145
e 48 146
e 48 152
e 48 153
e 48 160
e 48 162
e 48 166
e 48 167
e 48 177
e 48 178
e 48 180
e 48 182
e 48 184
e 48 185
e 48 187
e 48 193
e 48 197
e 49 50
e 49 52
e 49 61
e 49 71
e 49 76
e 49 84
e 49 93
e 49 102
e 49 106
e 49 109
e 49 119
e 49 126
e 49 129
e 49 131
e 49 136
e 49 145
e 49 156
e 49 181
e 49 182
e 49 183
e 49 191
e 49 193
e 50 51
e 50 53
e 50 57
e 50 58
e 50 75
e 50 80
e 50 90
e 50 92
e 50 100
e 50 104
e 50 108
e 50 115
e 50 118
e 50 121
e 50 125
e 50 126
e 50 127
e 50 128
e 50 129
e 50 132
e 50 136
e 50 146
e 50 150
e 50 155
e 50 156
e 50 161
e 50 166
e 50 171
e 50 179
e 50 184
e 50 190
e 50 194
e 50 200
e 51 52
e 51 56
e 51 62
e 51 67
e 51 70
e 51 81
e 51 82
e 51 84
e 51 85
e 51 102
e 51 103
e 51 105
e 51 115
e 51 116
e 51 118
e 51 127
e 51 132
e 51 136
e 51 146
e 51 147
e 51 153
e 51 163
e 51 167
e 51 169
e 51 174
e 51 176
e 51 178
e 51 184
e 51 195
e 51 198
e 51 199
e 52 69
e 52 72
e 52 79
e 52 82
e 52 95
e 52 96
e 52 100
e 52 103
e 52 108
e 52 115
e 52 120
e 52 126
e 52 131
e 52 133
e 52 141
e 52 145
e 52 146
e 52 150
e 52 155
e 52 160
e 52 163
e 52 164
e 52 167
e 52 176
e 52 186
e 52 188
e 52 196
e 52 198
e 53 65
e 53 66
e 53 71
e 53 79
e 53 80
e 53 82
e 53 90
e 53 93
e 53 109
e 53 115
e 53 118
e 53 134
e 53 136
e 53 137
e 53 138
e 53 149
e 53 152
e 53 159
e 53 163
e 53 172
e 53 183
e 53 184
e 53 187
e 53 188
e 53 193
e 53 194
e 53 199
e 54 57
e 54 64
e 54 65
e 54 75
e 54 83
e 54 87
e 54 98
e 54 102
e 54 106
e 54 109
e 54 114
e 54 122
e 54 124
e 54 127
e 54 131
e 54 132
e 54 138
e 54 140
e 54 142
e 54 150
e 54 165
e 54 171
e 54 176
e 54 177
e 54 179
e 54 184
e 54 186
e 54 192
e 54 197
e 55 59
e 55 73
e 55 75
e 55 84
e 55 90
e 55 98
e 55 101
e 55 103
e 55 105
e 55 114
e 55 116
e 55 122
e 55 131
e 55 135
e 55 136
e 55 138
e 55 143
e 55 144
e 55 150
e 55 159
e 55 167
e 55 169
e 55 174
e 55 178
e 55 189
e 55 195
e 56 60
e 56 61
e 56 63
e 56 65
e 56 70
e 56 82
e 56 84
e 56 93
e 56 101
e 56 109
e 56 119
e 56 125
e 56 127
e 56 138
e 56 140
e 56 144
e 56 157
e 56 160
e 56 163
e 56 166
e 56 167
e 56 168
e 56 170
e 56 171
e 56 175
e 56 181
e 57 59
e 57 80
e 57 82
e 57 87
e 57 88
e 57 94
e 57 96
e 57 101
e 57 107
e 57 115
e 57 119
e 57 123
e 57 134
e 57 136
e 57 139
e 57 143
e 57 144
e 57 148
e 57 149
e 57 153
e 57 166
e 57 176
e 57 182
e 57 195
e 57 196
e 57 197
e 57 200
e 58 59
e 58 65
e 58 68
e 58 71
e 58 76
e 58 84
e 58 88
e 58 98
e 58 103
e 58 108
e 58 110
e 58 112
e 58 116
e 58 117
e 58 120
e 58 122
e 58 124
e 58 125
e 58 133
e 58 134
e 58 139
e 58 152
e 58 154
e 58 163
e 58 180
e 58 192
e 59 66
e 59 68
e 59 73
e 59 77
e 59 78
e 59 83
e 59 84
e 59 87
e 59 94
e 59 103
e 59 104
e 59 105
e 59 126
e 59 130
e 59 131
e 59 139
e 59 142
e 59 165
e 59 166
e 59 169
e 59 187
e 59 194
e 60 61
e 60 70
e 60 77
e 60 82
e 60 84
e 60 87
e 60 97
e 60 107
e 60 122
e 60 129
e 60 153
e 60 164
e 60 172
e 60 190
e 61 62
e 61 67
e 61 68
e 61 77
e 61 78
e 61 82
e 61 83
e 61 87
e 61 88
e 61 92
e 61 93
e 61 108
e 61 113
e 61 120
e 61 124
e 61 139
e 61 140
e 61 147
e 61 152
e 61 166
e 61 167
e 61 168
e 61 169
e 61 172
e 61 174
e 61 177
e 61 183
e 61 185
e 61 187
e 61 190
e 62 68
e 62 76
e 62 84
e 62 103
e 62 104
e 62 111
e 62 115
e 62 116
e 62 124
e 62 125
e 62 127
e 62 129
e 62 132
e 62 135
e 62 141
e 62 142
e 62 149
e 62 158
e 62 159
e 62 168
e 62 172
e 62 181
e 62 184
e 62 187
e 62 191
e 62 195
e 62 199
e 62 200
e 63 73
e 63 82
e 63 101
e 63 105
e 63 107
e 63 113
e 63 116
e 63 124
e 63 129
e 63 130
e 63 138
e 63 151
e 63 153
e 63 154
e 63 157
e 63 161
e 63 162
e 63 166
e 63 172
e 63 173
e 63 175
e 63 180
e 63 181
e 63 183
e 63 184
e 63 186
e 63 187
e 63 192
e 63 195
e 63 197
e 63 198
e 64 73
e 64 74
e 64 77
e 64 79
e 64 87
e 64 88
e 64 107
e 64 124
e 64 131
e 64 154
e 64 157
e 64 158
e 64 169
e 64 197
e 64 199
e 65 69
e 65 72
e 65 74
e 65 75
e 65 82
e 65 88
e 65 90
e 65 100
e 65 102
e 65 104
e 65 105
e 65 106
e 65 107
e 65 112
e 65 120
e 65 137
e 65 151
e 65 154
e 65 158
e 65 162
e 65 167
e 65 170
e 65 175
e 65 176
e 65 182
e 65 184
e 65 192
e 65 196
e 65 197
e 66 69
e 66 76
e 66 83
e 66 88
e 66 91
e 66 96
e 66 97
e 66 101
e 66 108
e 66 112
e 66 113
e 66 114
e 66 121
e 66 130
e 66 135
e 66 138
e 66 140
e 66 144
e 66 146
e 66 154
e 66 155
e 66 160
e 66 168
e 66 171
e 66 174
e 66 178
e 66 181
e 66 182
e 66 184
e 66 186
e 66 190
e 66 199
e 67 71
e 67 80
e 67 91
e 67 94
e 67 95
e 67 99
e 67 100
e 67 102
e 67 104
e 67 106
e 67 107
e 67 112
e 67 116
e 67 122
e 67 124
e 67 133
e 67 134
e 67 137
e 67 142
e 67 150
e 67 154
e 67 162
e 67 163
e 67 169
e 67 172
e 67 177
e 67 180
e 67 182
e 67 183
e 67 185
e 67 187
e 67 200
e 68 74
e 68 76
e 68 82
e 68 89
e 68 91
e 68 92
e 68 102
e 68 107
e 68 109
e 68 112
e 68 113
e 68 119
e 68 123
e 68 135
e 68 136
e 68 139
e 68 141
e 68 154
e 68 161
e 68 166
e 68 178
e 68 182
e 68 185
e 68 188
e 68 194
e 68 195
e 69 72
e 69 82
e 69 96
e 69 99
e 69 100
e 69 107
e 69 109
e 69 111
e 69 113
e 69 114
e 69 117
e 69 124
e 69 125
e 69 130
e 69 139
e 69 143
e 69 148
e 69 162
e 69 165
e 69 166
e 69 168
e 69 173
e 69 175
e 69 181
e 69 184
e 69 186
e 69 188
e 69 189
e 69 190
e 69 191
e 69 192
e 70 72
e 70 93
e 70 96
e 70 99
e 70 102
e 70 112
e 70 113
e 70 114
e 70 132
e 70 141
e 70 142
e 70 154
e 70 174
e 70 179
e 70 188
e 70 190
e 70 191
e 70 195
e 71 75
e 71 82
e 71 83
e 71 84
e 71 94
e 71 99
e 71 100
e 71 101
e 71 102
e 71 103
e 71 108
e 71 113
e 71 120
e 71 124
e 71 133
e 71 134
e 71 143
e 71 151
e 71 155
e 71 161
e 71 166
e 71 167
e 71 169
e 71 175
e 71 181
e 71 190
e 71 191
e 71 198
e 71 200
e 72 75
e 72 85
e 72 86
e 72 108
e 72 114
e 72 132
e 72 135
e 72 142
e 72 144
e 72 150
e 72 155
e 72 159
e 72 166
e 72 176
e 72 182
e 72 183
e 72 187
e 72 191
e 72 192
e 72 199
e 73 74
e 73 78
e 73 80
e 73 86
e 73 98
e 73 100
e 73 103
e 73 113
e 73 117
e 73 121
e 73 124
e 73 126
e 73 130
e 73 131
e 73 136
e 73 144
e 73 148
e 73 154
e 73 160
e 73 164
e 73 176
e 73 181
e 73 182
e 73 189
e 73 192
e 73 197
e 74 79
e 74 80
e 74 87
e 74 92
e 74 93
e 74 95
e 74 96
e 74 100
e 74 107
e 74 110
e 74 116
e 74 118
e 74 122
e 74 126
e 74 138
e 74 140
e 74 146
e 74 156
e 74 161
e 74 171
e 74 173
e 74 176
e 74 181
e 74 190
e 74 193
e 74 197
e 75 80
e 75 81
e 75 85
e 75 87
e 75 88
e 75 96
e 75 97
e 75 104
e 75 106
e 75 113
e 75 114
e 75 116
e 75 126
e 75 136
e 75 149
e 75 151
e 75 152
e 75 161
e 75 164
e 75 167
e 75 170
e 75 174
e 75 176
e 75 178
e 75 180
e 75 181
e 75 183
e 75 189
e 75 195
e 75 196
e 75 199
e 76 79
e 76 86
e 76 89
e 76 99
e 76 109
e 76 115
e 76 116
e 76 119
e 76 120
e 76 125
e 76 130
e 76 131
e 76 132
e 76 134
e 76 135
e 76 136
e 76 145
e 76 152
e 76 155
e 76 156
e 76 158
e 76 167
e 76 169
e 76 183
e 76 186
e 76 194
e 76 196
e 76 198
e 76 199
e 76 200
e 77 83
e 77 91
e 77 95
e 77 97
e 77 101
e 77 112
e 77 114
e 77 120
e 77 130
e 77 142
e 77 143
e 77 149
e 77 152
e 77 154
e 77 161
e 77 163
e 77 166
e 77 185
e 77 195
e 78 80
e 78 90
e 78 91
e 78 97
e 78 107
e 78 108
e 78 112
e 78 123
e 78 127
e 78 128
e 78 140
e 78 146
e 78 151
e 78 152
e 78 154
e 78 160
e 78 168
e 78 170
e 78 171
e 78 175
e 78 176
e 78 178
e 78 186
e 78 190
e 78 200
e 79 81
e 79 85
e 79 87
e 79 89
e 79 91
e 79 96
e 79 100
e 79 109
e 79 111
e 79 117
e 79 124
e 79 127
e 79 132
e 79 144
e 79 148
e 79 151
e 79 154
e 79 158
e 79 170
e 79 172
e 79 177
e 79 180
e 79 191
e 79 192
e 79 196
e 79 197
e 79 198
e 80 81
e 80 82
e 80 83
e 80 86
e 80 97
e 80 109
e 80 122
e 80 125
e 80 132
e 80 141
e 80 144
e 80 148
e 80 151
e 80 153
e 80 158
e 80 161
e 80 166
e 80 172
e 80 173
e 80 178
e 80 179
e 80 180
e 80 186
e 80 197
e 81 87
e 81 88
e 81 89
e 81 92
e 81 99
e 81 110
e 81 129
e 81 130
e 81 133
e 81 143
e 81 150
e 81 151
e 81 152
e 81 155
e 81 156
e 81 157
e 81 164
e 81 172
e 81 174
e 81 177
e 81 178
e 81 195
e 81 196
e 82 84
e 82 86
e 82 88
e 82 92
e 82 102
e 82 107
e 82 108
e 82 116
e 82 119
e 82 127
e 82 130
e 82 137
e 82 141
e 82 145
e 82 149
e 82 152
e 82 160
e 82 165
e 82 166
e 82 167
e 82 171
e 82 172
e 82 174
e 82 178
e 82 194
e 82 195
e 82 196
e 83 89
e 83 97
e 83 106
e 83 107
e 83 109
e 83 115
e 83 122
e 83 124
e 83 128
e 83 130
e 83 131
e 83 133
e 83 145
e 83 154
e 83 157
e 83 171
e 83 174
e 83 175
e 83 176
e 83 183
e 83 189
e 83 192
e 83 195
e 84 94
e 84 104
e 84 106
e 84 107
e 84 115
e 84 121
e 84 130
e 84 138
e 84 139
e 84 141
e 84 147
e 84 149
e 84 151
e 84 154
e 84 160
e 84 161
e 84 165
e 84 166
e 84 170
e 84 180
e 84 185
e 84 188
e 84 194
e 85 94
e 85 96
e 85 101
e 85 109
e 85 112
e 85 123
e 85 125
e 85 138
e 85 147
e 85 158
e 85 160
e 85 165
e 85 168
e 85 169
e 85 178
e 85 181
e 85 187
e 85 192
e 85 194
e 85 195
e 85 199
e 86 87
e 86 88
e 86 94
e 86 105
e 86 119
e 86 124
e 86 125
e 86 127
e 86 132
e 86 137
e 86 139
e 86 141
e 86 154
e 86 170
e 86 174
e 86 178
e 86 181
e 86 182
e 86 188
e 86 191
e 86 194
e 86 197
e 87 88
e 87 89
e 87 91
e 87 98
e 87 100
e 87 103
e 87 107
e 87 116
e 87 120
e 87 126
e 87 127
e 87 128
e 87 134
e 87 135
e 87 149
e 87 153
e 87 158
e 87 160
e 87 164
e 87 178
e 87 189
e 87 190
e 87 197
e 87 198
e 88 93
e 88 97
e 88 102
e 88 103
e 88 116
e 88 117
e 88 119
e 88 120
e 88 123
e 88 124
e 88 125
e 88 128
e 88 136
e 88 138
e 88 142
e 88 145
e 88 150
e 88 152
e 88 157
e 88 159
e 88 178
e 88 182
e 88 183
e 88 187
e 88 189
e 88 193
e 88 194
e 88 199
e 89 91
e 89 95
e 89 109
e 89 111
e 89 114
e 89 116
e 89 117
e 89 118
e 89 132
e 89 134
e 89 136
e 89 138
e 89 148
e 89 151
e 89 153
e 89 162
e 89 173
e 89 186
e 89 188
e 89 189
e 89 196
e 89 198
e 89 199
e 90 92
e 90 99
e 90 107
e 90 109
e 90 111
e 90 112
e 90 116
e 90 117
e 90 120
e 90 122
e 90 127
e 90 129
e 90 140
e 90 152
e 90 161
e 90 171
e 90 174
e 90 175
e 90 182
e 90 185
e 90 196
e 91 99
e 91 111
e 91 113
e 91 115
e 91 133
e 91 148
e 91 152
e 91 153
e 91 155
e 91 161
e 91 183
e 91 184
e 91 186
e 92 95
e 92 98
e 92 101
e 92 102
e 92 105
e 92 109
e 92 113
e 92 140
e 92 146
e 92 148
e 92 156
e 92 158
e 92 163
e 92 164
e 92 172
e 92 173
e 92 175
e 92 176
e 92 192
e 92 197
e 93 94
e 93 96
e 93 104
e 93 110
e 93 111
e 93 115
e 93 119
e 93 120
e 93 122
e 93 124
e 93 130
e 93 140
e 93 141
e 93 145
e 93 146
e 93 148
e 93 150
e 93 154
e 93 156
e 93 162
e 93 166
e 93 169
e 93 171
e 93 178
e 93 188
e 94 95
e 94 98
e 94 102
e 94 103
e 94 111
e 94 127
e 94 130
e 94 134
e 94 137
e 94 153
e 94 166
e 94 167
e 94 174
e 94 176
e 94 178
e 94 180
e 94 182
e 94 184
e 94 191
e 94 199
e 95 97
e 95 99
e 95 119
e 95 122
e 95 123
e 95 141
e 95 144
e 95 147
e 95 152
e 95 154
e 95 155
e 95 161
e 95 164
e 95 176
e 95 179
e 95 189
e 95 190
e 95 193
e 96 99
e 96 100
e 96 103
e 96 104
e 96 106
e 96 108
e 96 112
e 96 113
e 96 115
e 96 126
e 96 133
e 96 134
e 96 138
e 96 140
e 96 142
e 96 147
e 96 164
e 96 173
e 96 174
e 96 180
e 96 182
e 96 184
e 96 187
e 96 191
e 96 192
e 96 196
e 96 198
e 97 109
e 97 116
e 97 117
e 97 125
e 97 128
e 97 130
e 97 131
e 97 138
e 97 139
e 97 141
e 97 151
e 97 162
e 97 172
e 97 186
e 97 190
e 97 197
e 98 99
e 98 103
e 98 112
e 98 116
e 98 120
e 98 125
e 98 128
e 98 132
e 98 136
e 98 137
e 98 145
e 98 146
e 98 156
e 98 161
e 98 167
e 98 187
e 98 188
e 98 189
e 98 190
e 98 192
e 99 114
e 99 124
e 99 135
e 99 140
e 99 148
e 99 151
e 99 167
e 99 174
e 99 175
e 99 185
e 99 192
e 99 193
e 99 199
e 100 103
e 100 109
e 100 112
e 100 114
e 100 117
e 100 119
e 100 120
e 100 137
e 100 144
e 100 156
e 100 157
e 100 158
e 100 161
e 100 174
e 100 178
e 100 180
e 100 186
e 100 191
e 100 195
e 100 196
e 101 103
e 101 105
e 101 114
e 101 125
e 101 131
e 101 133
e 101 136
e 101 141
e 101 144
e 101 159
e 101 162
e 101 167
e 101 176
e 101 178
e 101 180
e 101 189
e 101 194
e 102 103
e 102 106
e 102 107
e 102 110
e 102 113
e 102 119
e 102 130
e 102 134
e 102 142
e 102 144
e 102 147
e 102 149
e 102 154
e 102 168
e 102 175
e 102 180
e 102 185
e 102 191
e 102 197
e 102 199
e 103 107
e 103 109
e 103 115
e 103 126
e 103 131
e 103 140
e 103 146
e 103 151
e 103 153
e 103 157
e 103 165
e 103 171
e 103 175
e 103 178
e 103 190
e 104 115
e 104 116
e 104 119
e 104 125
e 104 127
e 104 134
e 104 135
e 104 136
e 104 149
e 104 172
e 104 175
e 104 178
e 104 180
e 104 196
e 105 106
e 105 113
e 105 118
e 105 122
e 105 123
e 105 124
e 105 126
e 105 130
e 105 134
e 105 143
e 105 146
e 105 152
e 105 156
e 105 164
e 105 168
e 105 173
e 105 176
e 105 183
e 105 187
e 105 188
e 105 192
e 106 112
e 106 113
e 106 117
e 106 118
e 106 120
e 106 122
e 106 131
e 106 132
e 106 134
e 106 147
e 106 150
e 106 156
e 106 167
e 106 175
e 106 176
e 106 177
e 106 184
e 106 186
e 106 193
e 106 200
e 107 111
e 107 116
e 107 117
e 107 119
e 107 124
e 107 127
e 107 130
e 107 134
e 107 136
e 107 150
e 107 151
e 107 174
e 107 175
e 107 177
e 107 186
e 107 188
e 107 200
e 108 109
e 108 117
e 108 120
e 108 121
e 108 124
e 108 131
e 108 144
e 108 148
e 108 149
e 108 150
e 108 153
e 108 157
e 108 160
e 108 161
e 108 173
e 108 177
e 108 185
e 108 190
e 108 195
e 108 197
e 109 117
e 109 120
e 109 121
e 109 127
e 109 128
e 109 131
e 109 134
e 109 136
e 109 148
e 109 149
e 109 151
e 109 161
e 109 166
e 109 169
e 109 172
e 109 178
e 109 179
e 109 183
e 109 195
e 110 111
e 110 113
e 110 119
e 110 122
e 110 127
e 110 150
e 110 153
e 110 158
e 110 160
e 110 172
e 110 184
e 110 186
e 110 187
e 110 195
e 111 119
e 111 126
e 111 130
e 111 137
e 111 144
e 111 157
e 111 160
e 111 165
e 111 170
e 111 171
e 111 180
e 111 181
e 111 185
e 111 187
e 111 189
e 111 193
e 112 114
e 112 126
e 112 127
e 112 141
e 112 142
e 112 143
e 112 146
e 112 151
e 112 152
e 112 154
e 112 162
e 112 163
e 112 174
e 112 179
e 112 185
e 112 194
e 112 196
e 112 199
e 113 117
e 113 118
e 113 119
e 113 124
e 113 128
e 113 131
e 113 134
e 113 136
e 113 138
e 113 145
e 113 155
e 113 158
e 113 160
e 113 163
e 113 175
e 113 177
e 113 178
e 113 184
e 113 189
e 113 191
e 113 193
e 113 194
e 113 196
e 113 197
e 113 199
e 114 118
e 114 125
e 114 131
e 114 133
e 114 137
e 114 145
e 114 148
e 114 151
e 114 166
e 114 169
e 114 174
e 114 181
e 114 187
e 114 193
e 115 118
e 115 119
e 115 123
e 115 131
e 115 136
e 115 149
e 115 153
e 115 165
e 115 166
e 115 176
e 115 184
e 115 186
e 115 191
e 115 192
e 115 197
e 115 199
e 116 133
e 116 140
e 116 144
e 116 150
e 116 153
e 116 154
e 116 165
e 116 179
e 116 200
e 117 120
e 117 122
e 117 126
e 117 134
e 117 136
e 117 138
e 117 144
e 117 145
e 117 150
e 117 164
e 117 165
e 117 168
e 117 175
e 117 180
e 117 189
e 117 190
e 117 197
e 117 200
e 118 124
e 118 128
e 118 130
e 118 131
e 118 138
e 118 140
e 118 148
e 118 156
e 118 159
e 118 161
e 118 166
e 118 167
e 118 169
e 118 171
e 118 179
e 118 180
e 118 189
e 118 193
e 118 199
e 119 125
e 119 126
e 119 127
e 119 132
e 119 138
e 119 140
e 119 142
e 119 143
e 119 157
e 119 161
e 119 162
e 119 166
e 119 173
e 119 176
e 119 180
e 120 130
e 120 135
e 120 137
e 120 138
e 120 139
e 120 148
e 120 152
e 120 154
e 120 160
e 120 165
e 120 176
e 120 178
e 120 182
e 120 186
e 120 187
e 120 195
e 121 132
e 121 134
e 121 135
e 121 140
e 121 141
e 121 144
e 121 146
e 121 148
e 121 151
e 121 154
e 121 158
e 121 162
e 121 170
e 121 174
e 121 175
e 121 176
e 121 183
e 121 185
e 121 190
e 121 191
e 121 197
e 122 125
e 122 135
e 122 139
e 122 140
e 122 151
e 122 155
e 122 162
e 122 170
e 122 178
e 122 183
e 122 186
e 122 194
e 122 195
e 123 134
e 123 135
e 123 137
e 123 138
e 123 145
e 123 158
e 123 160
e 123 163
e 123 169
e 123 170
e 123 171
e 123 174
e 123 176
e 123 179
e 123 180
e 123 183
e 123 186
e 123 190
e 123 193
e 123 199
e 124 131
e 124 132
e 124 140
e 124 151
e 124 153
e 124 158
e 124 163
e 124 166
e 124 169
e 124 173
e 124 175
e 124 180
e 124 187
e 124 196
e 124 197
e 125 131
e 125 134
e 125 135
e 125 136
e 125 144
e 125 150
e 125 158
e 125 162
e 125 170
e 125 175
e 125 179
e 125 181
e 125 182
e 125 187
e 125 191
e 126 129
e 126 139
e 126 142
e 126 154
e 126 163
e 126 168
e 126 171
e 126 178
e 126 180
e 126 187
e 126 196
e 126 197
e 127 128
e 127 130
e 127 140
e 127 149
e 127 151
e 127 154
e 127 157
e 127 161
e 127 162
e 127 168
e 127 177
e 127 186
e 127 187
e 127 190
e 127 193
e 127 195
e 127 199
e 128 136
e 128 143
e 128 145
e 128 146
e 128 154
e 128 161
e 128 182
e 128 189
e 128 191
e 128 196
e 128 199
e 129 136
e 129 144
e 129 153
e 129 157
e 129 162
e 129 163
e 129 169
e 129 171
e 129 174
e 129 179
e 129 189
e 129 197
e 129 200
e 130 135
e 130 136
e 130 139
e 130 140
e 130 141
e 130 148
e 130 153
e 130 156
e 130 159
e 130 160
e 130 162
e 130 164
e 130 167
e 130 180
e 130 188
e 130 194
e 130 197
e 131 150
e 131 152
e 131 153
e 131 154
e 131 162
e 131 169
e 131 171
e 131 181
e 131 182
e 131 183
e 131 184
e 131 189
e 131 195
e 131 197
e 131 200
e 132 135
e 132 143
e 132 146
e 132 147
e 132 150
e 132 165
e 132 175
e 132 179
e 132 188
e 132 190
e 132 191
e 132 196
e 132 198
e 133 147
e 133 148
e 133 150
e 133 160
e 133 164
e 133 166
e 133 168
e 133 175
e 133 177
e 133 179
e 133 186
e 133 187
e 133 188
e 134 142
e 134 155
e 134 161
e 134 162
e 134 166
e 134 169
e 134 175
e 134 179
e 134 180
e 134 195
e 134 200
e 135 158
e 135 166
e 135 187
e 135 189
e 135 191
e 135 196
e 135 197
e 136 137
e 136 153
e 136 165
e 136 170
e 136 175
e 136 176
e 136 182
e 136 187
e 136 196
e 136 197
e 137 139
e 137 142
e 137 144
e 137 147
e 137 155
e 137 169
e 137 170
e 137 174
e 137 178
e 137 189
e 137 198
e 138 142
e 138 167
e 138 172
e 138 178
e 138 181
e 138 183
e 138 187
e 138 190
e 139 142
e 139 144
e 139 148
e 139 153
e 139 159
e 139 161
e 139 166
e 139 170
e 139 172
e 139 174
e 139 179
e 139 189
e 139 192
e 139 194
e 140 148
e 140 157
e 140 164
e 140 165
e 140 168
e 140 169
e 140 170
e 140 175
e 140 176
e 140 190
e 140 193
e 140 198
e 141 147
e 141 149
e 141 150
e 141 157
e 141 158
e 141 159
e 141 161
e 141 166
e 141 170
e 141 172
e 141 174
e 141 179
e 141 189
e 141 199
e 141 200
e 142 145
e 142 146
e 142 147
e 142 160
e 142 162
e 142 163
e 142 169
e 142 179
e 142 181
e 142 194
e 142 197
e 143 153
e 143 160
e 143 162
e 143 163
e 143 173
e 143 178
e 143 181
e 143 183
e 143 190
e 143 192
e 143 199
e 143 200
e 144 154
e 144 155
e 144 158
e 144 160
e 144 162
e 144 164
e 144 165
e 144 169
e 144 172
e 144 178
e 144 180
e 144 187
e 145 158
e 145 159
e 145 167
e 145 174
e 145 178
e 145 184
e 145 189
e 145 191
e 145 195
e 146 165
e 146 166
e 146 174
e 146 176
e 146 178
e 146 180
e 146 182
e 146 186
e 146 188
e 146 192
e 147 152
e 147 155
e 147 157
e 147 164
e 147 166
e 147 168
e 147 169
e 147 170
e 147 179
e 147 180
e 147 189
e 147 190
e 147 192
e 147 198
e 147 200
e 148 151
e 148 155
e 148 157
e 148 158
e 148 164
e 148 167
e 148 179
e 148 181
e 148 184
e 148 188
e 148 191
e 148 199
e 149 150
e 149 160
e 149 163
e 149 170
e 149 179
e 149 185
e 149 188
e 150 154
e 150 156
e 150 165
e 150 177
e 150 182
e 150 192
e 150 194
e 150 197
e 151 155
e 151 158
e 151 166
e 151 171
e 151 174
e 151 181
e 151 190
e 151 193
e 151 198
e 152 154
e 152 155
e 152 158
e 152 170
e 152 185
e 152 186
e 152 187
e 152 190
e 152 192
e 153 159
e 153 160
e 153 166
e 153 168
e 153 169
e 153 170
e 153 174
e 153 179
e 153 181
e 153 193
e 153 196
e 153 200
e 154 155
e 154 161
e 154 162
e 154 167
e 154 168
e 154 169
e 154 170
e 154 173
e 154 176
e 154 179
e 154 181
e 154 189
e 154 190
e 154 195
e 154 198
e 155 164
e 155 167
e 155 168
e 155 170
e 155 172
e 155 179
e 155 185
e 155 186
e 155 192
e 156 158
e 156 165
e 156 167
e 156 171
e 156 175
e 156 180
e 156 189
e 156 192
e 156 195
e 157 161
e 157 166
e 157 168
e 157 171
e 157 181
e 157 185
e 157 199
e 158 163
e 158 167
e 158 168
e 158 169
e 158 175
e 158 176
e 158 185
e 158 187
e 158 193
e 158 194
e 159 167
e 159 180
e 159 187
e 159 191
e 159 197
e 160 166
e 160 167
e 160 170
e 160 179
e 160 184
e 160 186
e 161 180
e 161 183
e 161 185
e 161 188
e 161 190
e 161 196
e 161 199
e 162 163
e 162 166
e 162 171
e 162 172
e 162 173
e 162 174
e 162 175
e 162 176
e 162 178
e 162 181
e 162 199
e 163 170
e 163 171
e 163 172
e 163 176
e 163 182
e 163 183
e 163 186
e 163 187
e 163 188
e 163 193
e 163 196
e 163 199
e 164 174
e 164 177
e 164 183
e 164 187
e 164 188
e 164 191
e 164 196
e 164 198
e 165 180
e 165 182
e 165 192
e 165 197
e 165 199
e 166 167
e 166 168
e 166 172
e 166 175
e 166 184
e 166 193
e 166 194
e 167 172
e 167 173
e 167 175
e 167 182
e 167 183
e 167 186
e 167 187
e 167 189
e 167 190
e 167 191
e 167 194
e 167 196
e 168 170
e 168 178
e 168 180
e 168 183
e 168 188
e 168 190
e 168 191
e 168 197
e 168 199
e 168 200
e 169 173
e 169 177
e 169 181
e 169 183
e 169 184
e 169 185
e 169 191
e 170 175
e 170 179
e 170 193
e 170 194
e 171 175
e 171 177
e 171 200
e 172 174
e 172 179
e 172 180
e 172 182
e 172 184
e 172 187
e 172 196
e 172 200
e 173 174
e 173 175
e 173 177
e 173 181
e 173 185
e 173 189
e 173 192
e 173 198
e 173 200
e 174 178
e 174 179
e 174 185
e 174 194
e 175 176
e 175 184
e 175 186
e 175 190
e 175 197
e 175 199
e 175 200
e 176 177
e 176 182
e 176 187
e 176 190
e 176 196
e 177 190
e 177 192
e 177 200
e 178 180
e 178 184
e 178 188
e 178 195
e 178 196
e 179 180
e 179 181
e 179 186
e 179 189
e 179 198
e 180 183
e 180 192
e 180 195
e 180 199
e 181 183
e 181 184
e 181 186
e 181 187
e 181 188
e 181 189
e 182 191
e 182 193
e 182 196
e 183 186
e 183 190
e 183 191
e 183 200
e 184 192
e 185 189
e 185 190
e 185 196
e 185 198
e 186 187
e 186 191
e 187 192
e 187 193
e 187 195
e 187 199
e 188 191
e 188 199
e 189 190
e 189 197
e 190 192
e 191 192
e 191 194
e 191 195
e 191 196
e 191 199
e 192 193
e 192 200
e 193 199
e 194 196
e 194 199
e 197 198
e 197 199
e 198 200
e 199 200
